p wcnf 8 24 105
105 1 2 0
105 1 5 0
105 1 6 0
105 1 7 0
105 2 4 0
105 2 6 0
105 2 7 0
105 3 5 0
105 3 6 0
105 3 7 0
105 3 8 0
105 4 5 0
105 4 6 0
105 5 6 0
105 5 8 0
105 6 7 0
5 -1 0
5 -2 0
5 -3 0
6 -4 0
4 -5 0
3 -6 0
5 -7 0
7 -8 0
